81 92162
66 57 47 77 76 69 60 40 23 48 3 41 49 38 4 33 19 74 17 70 21 44 15 34 12 65 39 9 78 6 11 64 51 26 14 81 55 31 36 56 16 37 2 20 67 71 5 7 59 35 18 79 28 80 27 62 1 24 58 63 73 10 25 29 45 22 42 75 32 46 72 30 50 68 43 52 13 61 54 53 8 
